# ORCA input file
# verteporfin
! BP86 Def2-SVP TightSCF Grid4 D3BJ OPT

%pal nprocs 12 end

%scf
    maxiter 400
end
* xyz 0 1
C      -4.650500   -2.342400   -3.358100
O      -5.043800   -2.272700   -1.962100
C      -4.345700   -1.440900   -1.173100
O      -3.436100   -0.792500   -1.633700
C      -4.696400   -1.315800    0.287200
H      -4.593300   -2.284800    0.775600
C      -6.120800   -0.817400    0.431800
C      -6.417300    0.506600    0.361500
C      -5.396900    1.466800    0.173300
C      -4.126700    1.066500    0.372200
C      -2.830300    1.707100    0.181200
C      -2.683500    3.055400   -0.111600
C      -1.468600    3.725100   -0.261500
N      -0.243700    3.244600   -0.050400
C       0.664200    4.217500   -0.162800
C       2.035400    4.152000    0.085800
C       2.701600    2.984500    0.412900
N       2.177100    1.708600    0.489300
C       3.215500    0.834700    0.717900
C       3.145700   -0.556700    0.758800
C       1.943400   -1.237100    0.619700
N       0.685500   -0.688800    0.476500
C      -0.235100   -1.714900    0.538000
C      -1.613700   -1.618500    0.607800
C      -2.322000   -0.433100    0.567400
N      -1.872700    0.776800    0.287400
C      -3.776000   -0.303000    0.952900
C      -3.937800   -0.319000    2.475100
C       0.482500   -2.930900    0.532100
C      -0.117400   -4.312300    0.477400
C       1.808600   -2.638300    0.584200
C       2.936400   -3.637600    0.600700
C       3.450800   -3.849700   -0.824500
C       4.578700   -4.849000   -0.808000
O       4.934500   -5.341200    0.236500
O       5.187900   -5.192400   -1.953700
C       6.266100   -6.160600   -1.862500
C       4.383500    1.589600    0.909300
C       5.747600    1.041400    1.240700
C       6.508200    0.749200   -0.054300
C       7.872300    0.201000    0.277100
O       8.720700   -0.129100   -0.709200
O       8.202300    0.058700    1.430700
C       4.068300    2.903500    0.742700
C       5.015600    4.066900    0.885500
C      -0.047800    5.427400   -0.629000
C       0.545000    6.734000   -0.965700
C       0.325400    7.275500   -2.159300
C      -1.379000    5.079900   -0.683700
C      -2.521700    5.965200   -1.109800
C      -7.162300   -1.749800    0.643800
O      -8.310300   -1.363400    0.761600
O      -6.883400   -3.068600    0.715500
C      -7.984200   -3.953800    0.931400
H      -3.614300   -2.673500   -3.427500
H      -5.293800   -3.049500   -3.881900
H      -4.748100   -1.356600   -3.812700
H      -7.444100    0.829200    0.450700
H      -5.626800    2.480800   -0.118800
H      -3.586100    3.635600   -0.234400
H       2.609300    5.064500    0.019400
H       4.054200   -1.122700    0.902500
H      -2.176300   -2.535700    0.700100
H      -3.373300    0.506200    2.909100
H      -4.992200   -0.211600    2.729600
H      -3.563000   -1.263200    2.870400
H      -1.204100   -4.235300    0.443000
H       0.238800   -4.828100   -0.414300
H       0.179300   -4.872500    1.364100
H       3.745600   -3.261900    1.226900
H       2.576500   -4.585100    1.001900
H       2.641600   -4.225400   -1.450700
H       3.810700   -2.902200   -1.225600
H       7.053100   -5.768400   -1.218400
H       5.884000   -7.091500   -1.443500
H       6.670600   -6.348800   -2.857000
H       6.300300    1.773700    1.829300
H       5.639700    0.120900    1.814400
H       5.955600    0.016900   -0.642900
H       6.616100    1.669700   -0.627900
H       9.584400   -0.476600   -0.447500
H       5.480200    4.277500   -0.077700
H       4.464600    4.944800    1.222900
H       5.787100    3.819700    1.614800
H       1.157800    7.251400   -0.242500
H      -0.350500    6.797700   -2.853000
H       0.822900    8.193400   -2.435600
H      -2.675900    5.867400   -2.184400
H      -3.428400    5.666500   -0.583900
H      -2.287000    7.002200   -0.869400
H      -7.622400   -4.981400    0.968400
H      -8.470500   -3.705600    1.874800
H      -8.699500   -3.849700    0.115500
H       1.241300    1.470600    0.397800
H       0.483800    0.252200    0.354800
*
